3102125
194,97,13,76,130,15,144,189,120,47,197,22,27,64,212,93,98,164,177,148,224,153,109,150,171,217,204,199,162,86,174,11,181,149,187,4,228,88,142,90,186,17,138,131,56,54,53,92,175,18,222,227,185,214,218,25,63,102,78,55,108,94,62,81,215,96,37,196,184,161,211,71,72,157,135,140,43,89,101,208,42,23,83,39,67,49,114,57,176,68,151,180,188,32,36,113,137,225,75,87,107,163,31,210,46,74,1,156,16,172,73,77,216,202,105,128,158,201,65,119,121,124,5,51,14,195,139,85,147,44,165,116,205,28,166,20,183,209,80,48,200,60,230,115,123,127,118,207,59,8,143,50,229,35,9,104,19,29,61,192,26,145,223,6,40,160,206,34,58,69,117,170,33,146,45,221,198,95,134,126,141,41,106,66,100,219,99,190,24,226,169,155,112,133,178,159,152,111,3,203,103,129,12,21,38,173,122,7,79,191,154,30,125,168,82,110,220,213,132,193,179,91,182,84,136,10,167,2,70,52